33316
1 0 0 0 0 1 0 1 1 0 0 1 0 0 0 0 0 0 0 1 0 1 0 0 0 0 1 1 0 0 
7 19 21 27 21 11 21 27 27 27 26 19 8 5 19 7 5 8 27 0 27 21 5 0 5 27 27 19 26 21 19 19 26 21 27 19 8 8 27 21 7 8 19 26 8 19 8 21 19 26 0 21 21 21 8 11 7 26 7 7 26 0 7 8 8 11 5 19 19 11 7 11 19 26 5 5 8 5 8 21 5 0 26 7 26 8 19 5 27 7 27 19 7 11 0 8 11 11 0 11 0 21 11 7 26 0 26 27 27 8 19 26 27 11 11 8 11 7 0 8 26 11 0 19 26 21 21 11 26 0 11 21 11 8 5 26 8 8 0 0 11 27 11 11 7 5 27 21 27 7 27 0 5 0 8 11 5 21 8 8 8 27 5 0 5 27 5 26 5 21 5 8 19 0 26 21 0 8 26 8 5 21 21 19 11 8 11 5 0 21 21 21 19 19 7 11 7 21 5 19 
